p cnf 50 20
x -1 3 4 5 -7 8 11 13 19 -20 25 -26 34 35 -36 39 -41 42 -43 45 -47 -48 -50 0
x -1 9 -14 17 -18 -19 -20 -22 -23 -24 -26 28 -29 31 32 -33 34 36 37 -41 -47 48 -50 0
x 1 2 3 -7 -8 -9 14 -15 18 -20 21 23 -24 -25 27 -30 31 -33 -35 -36 37 39 -42 -43 -45 46 -47 -50 0
x -1 -2 3 4 6 -7 8 -10 13 -14 15 19 21 22 24 27 -28 31 33 -34 35 -41 42 -43 47 -49 0
x -1 -2 3 -4 9 10 11 16 17 -22 23 -25 30 -32 -34 36 -38 -39 -40 43 -44 -45 -46 47 0
x 2 4 -5 9 11 -14 16 -19 22 23 24 28 -29 -36 39 41 42 43 44 45 46 -49 -50 0
x -2 5 7 8 -10 -11 12 13 -15 -18 -19 20 23 26 -30 -31 33 35 38 40 41 -42 44 47 48 50 0
x -1 3 4 -5 7 -11 14 15 -16 17 18 -20 22 -25 -26 -27 -28 30 -36 40 -41 43 -44 48 0
x 1 -2 -4 -7 8 13 -14 20 21 22 -24 31 -33 34 -35 36 40 41 42 -43 44 46 48 0
x -3 -4 5 -7 10 12 -14 -16 19 22 23 -24 -26 28 -29 -30 35 38 -42 46 0
x 1 3 7 8 9 10 13 16 -18 -20 21 -23 26 -27 28 -29 30 33 34 -35 -36 37 -39 -40 -41 -42 49 0
x 1 -2 6 9 -10 13 14 -16 17 -18 19 -22 -23 24 -28 31 32 -33 -37 41 -44 -46 -49 0
x 1 2 3 4 5 -6 -7 -8 -9 12 -13 14 -15 -16 23 -25 -30 -31 -33 37 -43 -48 -50 0
x 3 -4 5 -8 12 -13 14 -16 17 18 -20 21 -25 -26 27 -28 30 31 -34 36 37 39 -40 -43 -47 49 0
x -2 3 -9 -11 12 -15 -16 17 -24 -25 27 -29 31 33 35 37 -39 -40 43 0
x 2 3 -6 7 10 -12 13 -19 20 -21 24 28 43 -46 49 0
x -1 -2 -5 6 -9 11 12 13 -14 -16 19 -21 23 -24 25 27 29 -31 32 -33 -34 -36 -37 39 43 -45 47 0
x -5 7 11 -12 -14 18 19 20 24 -25 -28 -32 33 34 -36 -37 38 -39 -40 -41 -42 44 -45 46 -48 -49 -50 0
x 2 4 -6 7 -8 -9 11 12 -13 -15 -17 -18 -19 -20 23 24 26 29 -39 41 -43 44 -45 0
x 1 2 -3 4 5 -8 11 12 13 -14 15 -16 17 19 -20 21 -24 -25 -26 -27 28 31 -33 -36 37 41 -42 -43 -45 -46 47 -48 49 -50 0
g -20